c Sudoku solution
p cnf 729 0
121 0
223 0
287 0
359 0
372 0
396 0
452 0
497 0
526 0
537 0
551 0
584 0
592 0
646 0
665 0
657 0
679 0
728 0
786 0
476 0
811 0
834 0
848 0
916 0
942 0
882 0
622 0
614 0
324 0
963 0
153 0
383 0
258 0
856 0
994 0
955 0
754 0
939 0
927 0
825 0
429 0
189 0
219 0
485 0
431 0
515 0
236 0
166 0
262 0
464 0
443 0
549 0
568 0
418 0
633 0
573 0
713 0
732 0
112 0
317 0
147 0
244 0
345 0
361 0
174 0
198 0
135 0
338 0
741 0
877 0
893 0
775 0
799 0
767 0
869 0
271 0
295 0
978 0
981 0
688 0
691 0
